\ENCODING=ISO-8859-1
\Problem name: IloCplex

Minimize
 obj_cost: f_kj(1,1) + f_kj(1,2) + f_kj(1,3) + f_kj(1,4) + f_kj(1,5)
           + f_kj(2,1) + f_kj(2,2) + f_kj(2,6) + f_kj(2,7) + f_j(1) + f_j(2)
           + f_j(3) + f_j(4) + f_j(5) + f_j(6) + f_j(7) + obj_cost
Subject To
 c1_k(1):                  w1_kjm(1,5,1) + w2_1_kjm(1,5,1)  = 10
 c1_k(2):                  w1_kjm(2,7,1) + w2_1_kjm(2,7,1)  = 10
 c9_kjm(1,1,1):            w2_1_kjm(1,1,1) + w2_2_kjm(1,1,1) - w2_kjm(1,1,1)
                            = 0
 c9_kjm(1,2,1):            w2_1_kjm(1,2,1) + w2_2_kjm(1,2,1) - w2_kjm(1,2,1)
                            = 0
 c2_k(1)_jm(2,1)_lm(1,1):  w2_1_kjm(1,1,1) + w1_kjm(1,1,1) - w1_kjm(1,2,1)  = 0
 c10_k(1)_jm(2,1)_lm(1,1): w2_2_kjm(1,1,1) - w2_kjm(1,2,1)  = 0
 c9_kjm(1,3,1):            w2_1_kjm(1,3,1) + w2_2_kjm(1,3,1) - w2_kjm(1,3,1)
                            = 0
 c9_kjm(1,4,1):            w2_1_kjm(1,4,1) + w2_2_kjm(1,4,1) - w2_kjm(1,4,1)
                            = 0
 c9_kjm(1,5,1):            w2_1_kjm(1,5,1) + w2_2_kjm(1,5,1) - w2_kjm(1,5,1)
                            = 0
 c2_k(1)_jm(5,1)_lm(2,1):  - w1_kjm(1,5,1) + w2_1_kjm(1,2,1) + w1_kjm(1,2,1)
                            = 0
 c10_k(1)_jm(5,1)_lm(2,1): w2_2_kjm(1,2,1) - w2_kjm(1,5,1)  = 0
 c2_k(1)_jm(5,1)_lm(3,1):  - w1_kjm(1,5,1) + w2_1_kjm(1,3,1) + w1_kjm(1,3,1)
                            = 0
 c10_k(1)_jm(5,1)_lm(3,1): w2_2_kjm(1,3,1) - w2_kjm(1,5,1)  = 0
 c2_k(1)_jm(5,1)_lm(4,1):  - w1_kjm(1,5,1) + w2_1_kjm(1,4,1) + w1_kjm(1,4,1)
                            = 0
 c10_k(1)_jm(5,1)_lm(4,1): w2_2_kjm(1,4,1) - w2_kjm(1,5,1)  = 0
 c9_kjm(2,1,1):            w2_1_kjm(2,1,1) + w2_2_kjm(2,1,1) - w2_kjm(2,1,1)
                            = 0
 c9_kjm(2,1,2):            w2_1_kjm(2,1,2) + w2_2_kjm(2,1,2) - w2_kjm(2,1,2)
                            = 0
 c9_kjm(2,2,1):            w2_1_kjm(2,2,1) + w2_2_kjm(2,2,1) - w2_kjm(2,2,1)
                            = 0
 c2_k(2)_jm(2,1)_lm(1,2):  w2_1_kjm(2,1,2) + w1_kjm(2,1,2) - w1_kjm(2,2,1)  = 0
 c10_k(2)_jm(2,1)_lm(1,2): w2_2_kjm(2,1,2) - w2_kjm(2,2,1)  = 0
 c9_kjm(2,6,1):            w2_1_kjm(2,6,1) + w2_2_kjm(2,6,1) - w2_kjm(2,6,1)
                            = 0
 c2_k(2)_jm(6,1)_lm(2,1):  w2_1_kjm(2,2,1) + w1_kjm(2,2,1) - w1_kjm(2,6,1)  = 0
 c10_k(2)_jm(6,1)_lm(2,1): w2_2_kjm(2,2,1) - w2_kjm(2,6,1)  = 0
 c9_kjm(2,7,1):            w2_1_kjm(2,7,1) + w2_2_kjm(2,7,1) - w2_kjm(2,7,1)
                            = 0
 c2_k(2)_jm(7,1)_lm(1,1):  - w1_kjm(2,7,1) + w2_1_kjm(2,1,1) + w1_kjm(2,1,1)
                            = 0
 c10_k(2)_jm(7,1)_lm(1,1): w2_2_kjm(2,1,1) - w2_kjm(2,7,1)  = 0
 c2_k(2)_jm(7,1)_lm(6,1):  - w1_kjm(2,7,1) + w2_1_kjm(2,6,1) + w1_kjm(2,6,1)
                            = 0
 c10_k(2)_jm(7,1)_lm(6,1): w2_2_kjm(2,6,1) - w2_kjm(2,7,1)  = 0
 c3_kj(1,1):               w1_kjm(1,1,1) - w1_kj(1,1)  = 0
 c4_kj(1,1):               - f_kj(1,1) + w1_kj(1,1) + 10 delta_kj(1,1)  = 0
 c5_kj(1,1):               w1_kj(1,1) - 10 delta_kj(1,1) <= 0
 c3_kj(1,2):               w1_kjm(1,2,1) - w1_kj(1,2)  = 0
 c4_kj(1,2):               - f_kj(1,2) + w1_kj(1,2) + 10 delta_kj(1,2)  = 0
 c5_kj(1,2):               w1_kj(1,2) - 10 delta_kj(1,2) <= 0
 c3_kj(1,3):               w1_kjm(1,3,1) - w1_kj(1,3)  = 0
 c4_kj(1,3):               - f_kj(1,3) + w1_kj(1,3) + 5 delta_kj(1,3)  = 0
 c5_kj(1,3):               w1_kj(1,3) - 10 delta_kj(1,3) <= 0
 c3_kj(1,4):               w1_kjm(1,4,1) - w1_kj(1,4)  = 0
 c4_kj(1,4):               - f_kj(1,4) + w1_kj(1,4) + 5 delta_kj(1,4)  = 0
 c5_kj(1,4):               w1_kj(1,4) - 10 delta_kj(1,4) <= 0
 c3_kj(1,5):               w1_kjm(1,5,1) - w1_kj(1,5)  = 0
 c4_kj(1,5):               - f_kj(1,5) + 2 w1_kj(1,5) + 5 delta_kj(1,5)  = 0
 c5_kj(1,5):               w1_kj(1,5) - 10 delta_kj(1,5) <= 0
 c3_kj(2,1):               w1_kjm(2,1,2) + w1_kjm(2,1,1) - w1_kj(2,1)  = 0
 c4_kj(2,1):               - f_kj(2,1) + w1_kj(2,1) + 10 delta_kj(2,1)  = 0
 c5_kj(2,1):               w1_kj(2,1) - 20 delta_kj(2,1) <= 0
 c3_kj(2,2):               w1_kjm(2,2,1) - w1_kj(2,2)  = 0
 c4_kj(2,2):               - f_kj(2,2) + w1_kj(2,2) + 10 delta_kj(2,2)  = 0
 c5_kj(2,2):               w1_kj(2,2) - 10 delta_kj(2,2) <= 0
 c3_kj(2,6):               w1_kjm(2,6,1) - w1_kj(2,6)  = 0
 c4_kj(2,6):               - f_kj(2,6) + w1_kj(2,6) + 5 delta_kj(2,6)  = 0
 c5_kj(2,6):               w1_kj(2,6) - 10 delta_kj(2,6) <= 0
 c3_kj(2,7):               w1_kjm(2,7,1) - w1_kj(2,7)  = 0
 c4_kj(2,7):               - f_kj(2,7) + w1_kj(2,7) + 5 delta_kj(2,7)  = 0
 c5_kj(2,7):               w1_kj(2,7) - 10 delta_kj(2,7) <= 0
 c6_j(1):                  w2_kjm(1,1,1) + w2_kjm(2,1,1) + w2_kjm(2,1,2)
                           - w2_j(1)  = 0
 c7_j(1):                  - f_j(1) + w2_j(1) + 10 delta_j(1)  = 0
 c8_j(1):                  w2_j(1) - 30 delta_j(1) <= 0
 c6_j(2):                  w2_kjm(1,2,1) + w2_kjm(2,2,1) - w2_j(2)  = 0
 c7_j(2):                  - f_j(2) + w2_j(2) + 10 delta_j(2)  = 0
 c8_j(2):                  w2_j(2) - 20 delta_j(2) <= 0
 c6_j(3):                  w2_kjm(1,3,1) - w2_j(3)  = 0
 c7_j(3):                  - f_j(3) + w2_j(3) + 5 delta_j(3)  = 0
 c8_j(3):                  w2_j(3) - 10 delta_j(3) <= 0
 c6_j(4):                  w2_kjm(1,4,1) - w2_j(4)  = 0
 c7_j(4):                  - f_j(4) + w2_j(4) + 5 delta_j(4)  = 0
 c8_j(4):                  w2_j(4) - 10 delta_j(4) <= 0
 c6_j(5):                  w2_kjm(1,5,1) - w2_j(5)  = 0
 c7_j(5):                  - f_j(5) + 2 w2_j(5) + 5 delta_j(5)  = 0
 c8_j(5):                  w2_j(5) - 10 delta_j(5) <= 0
 c6_j(6):                  w2_kjm(2,6,1) - w2_j(6)  = 0
 c7_j(6):                  - f_j(6) + w2_j(6) + 5 delta_j(6)  = 0
 c8_j(6):                  w2_j(6) - 10 delta_j(6) <= 0
 c6_j(7):                  w2_kjm(2,7,1) - w2_j(7)  = 0
 c7_j(7):                  - f_j(7) + w2_j(7) + 5 delta_j(7)  = 0
 c8_j(7):                  w2_j(7) - 10 delta_j(7) <= 0
Bounds
      obj_cost = 0
 0 <= w1_kjm(1,5,1) <= 10
 0 <= w2_1_kjm(1,5,1) <= 10
 0 <= w1_kjm(2,7,1) <= 10
 0 <= w2_1_kjm(2,7,1) <= 10
 0 <= w2_1_kjm(1,1,1) <= 10
 0 <= w2_2_kjm(1,1,1) <= 10
 0 <= w2_kjm(1,1,1) <= 10
 0 <= w2_1_kjm(1,2,1) <= 10
 0 <= w2_2_kjm(1,2,1) <= 10
 0 <= w2_kjm(1,2,1) <= 10
 0 <= w1_kjm(1,1,1) <= 10
 0 <= w1_kjm(1,2,1) <= 10
 0 <= w2_1_kjm(1,3,1) <= 10
 0 <= w2_2_kjm(1,3,1) <= 10
 0 <= w2_kjm(1,3,1) <= 10
 0 <= w2_1_kjm(1,4,1) <= 10
 0 <= w2_2_kjm(1,4,1) <= 10
 0 <= w2_kjm(1,4,1) <= 10
 0 <= w2_2_kjm(1,5,1) <= 10
 0 <= w2_kjm(1,5,1) <= 10
 0 <= w1_kjm(1,3,1) <= 10
 0 <= w1_kjm(1,4,1) <= 10
 0 <= w2_1_kjm(2,1,1) <= 10
 0 <= w2_2_kjm(2,1,1) <= 10
 0 <= w2_kjm(2,1,1) <= 10
 0 <= w2_1_kjm(2,1,2) <= 10
 0 <= w2_2_kjm(2,1,2) <= 10
 0 <= w2_kjm(2,1,2) <= 10
 0 <= w2_1_kjm(2,2,1) <= 10
 0 <= w2_2_kjm(2,2,1) <= 10
 0 <= w2_kjm(2,2,1) <= 10
 0 <= w1_kjm(2,1,2) <= 10
 0 <= w1_kjm(2,2,1) <= 10
 0 <= w2_1_kjm(2,6,1) <= 10
 0 <= w2_2_kjm(2,6,1) <= 10
 0 <= w2_kjm(2,6,1) <= 10
 0 <= w1_kjm(2,6,1) <= 10
 0 <= w2_2_kjm(2,7,1) <= 10
 0 <= w2_kjm(2,7,1) <= 10
 0 <= w1_kjm(2,1,1) <= 10
 0 <= w1_kj(1,1) <= 10
 0 <= delta_kj(1,1) <= 1
 0 <= w1_kj(1,2) <= 10
 0 <= delta_kj(1,2) <= 1
 0 <= w1_kj(1,3) <= 10
 0 <= delta_kj(1,3) <= 1
 0 <= w1_kj(1,4) <= 10
 0 <= delta_kj(1,4) <= 1
 0 <= w1_kj(1,5) <= 10
 0 <= delta_kj(1,5) <= 1
 0 <= w1_kj(2,1) <= 20
 0 <= delta_kj(2,1) <= 1
 0 <= w1_kj(2,2) <= 10
 0 <= delta_kj(2,2) <= 1
 0 <= w1_kj(2,6) <= 10
 0 <= delta_kj(2,6) <= 1
 0 <= w1_kj(2,7) <= 10
 0 <= delta_kj(2,7) <= 1
 0 <= w2_j(1) <= 30
 0 <= delta_j(1) <= 1
 0 <= w2_j(2) <= 20
 0 <= delta_j(2) <= 1
 0 <= w2_j(3) <= 10
 0 <= delta_j(3) <= 1
 0 <= w2_j(4) <= 10
 0 <= delta_j(4) <= 1
 0 <= w2_j(5) <= 10
 0 <= delta_j(5) <= 1
 0 <= w2_j(6) <= 10
 0 <= delta_j(6) <= 1
 0 <= w2_j(7) <= 10
 0 <= delta_j(7) <= 1
Binaries
 delta_kj(1,1)  delta_kj(1,2)  delta_kj(1,3)  delta_kj(1,4)  delta_kj(1,5) 
 delta_kj(2,1)  delta_kj(2,2)  delta_kj(2,6)  delta_kj(2,7)  delta_j(1) 
 delta_j(2)  delta_j(3)  delta_j(4)  delta_j(5)  delta_j(6)  delta_j(7) 
Generals
 w1_kjm(1,5,1)  w2_1_kjm(1,5,1)  w1_kjm(2,7,1)  w2_1_kjm(2,7,1) 
 w2_1_kjm(1,1,1)  w2_2_kjm(1,1,1)  w2_kjm(1,1,1)  w2_1_kjm(1,2,1) 
 w2_2_kjm(1,2,1)  w2_kjm(1,2,1)  w1_kjm(1,1,1)  w1_kjm(1,2,1)  w2_1_kjm(1,3,1) 
 w2_2_kjm(1,3,1)  w2_kjm(1,3,1)  w2_1_kjm(1,4,1)  w2_2_kjm(1,4,1) 
 w2_kjm(1,4,1)  w2_2_kjm(1,5,1)  w2_kjm(1,5,1)  w1_kjm(1,3,1)  w1_kjm(1,4,1) 
 w2_1_kjm(2,1,1)  w2_2_kjm(2,1,1)  w2_kjm(2,1,1)  w2_1_kjm(2,1,2) 
 w2_2_kjm(2,1,2)  w2_kjm(2,1,2)  w2_1_kjm(2,2,1)  w2_2_kjm(2,2,1) 
 w2_kjm(2,2,1)  w1_kjm(2,1,2)  w1_kjm(2,2,1)  w2_1_kjm(2,6,1)  w2_2_kjm(2,6,1) 
 w2_kjm(2,6,1)  w1_kjm(2,6,1)  w2_2_kjm(2,7,1)  w2_kjm(2,7,1)  w1_kjm(2,1,1) 
 w1_kj(1,1)  w1_kj(1,2)  w1_kj(1,3)  w1_kj(1,4)  w1_kj(1,5)  w1_kj(2,1) 
 w1_kj(2,2)  w1_kj(2,6)  w1_kj(2,7) 
End
